language ESSENCE' 1.0
$ Minion SolverNodes: 10
$ Minion SolverTotalTime: 0.000849
$ Minion SolverTimeOut: 0
$ Savile Row TotalTime: 0.426
letting Allocation be [[false, false, true, false], 
[false, true, false, false], 
[true, false, false, true]]
letting cost be 1
